Route #1: 75
Route #2: 67
Route #3: 26
Route #4: 4
Route #5: 17 40 12 58 10 38 65 11 66 59 14 53 7 35 8
Route #6: 68 6 51 33 63 16 3 44 32 9 39 72 31 55 25 50 18 24 49 23 56
Route #7: 34 46 52 27 45 29 48 47 36 71 60 70 20 37 5 15 57 13 54 19
Route #8: 2 30 74 28 62 73 1 43 41 42 64 22 61 69 21
cost: 684.5654365636077
